HUN,8,6,620
4,24,0,28,5,30,3,18,2,21,1,7
4,20,3,7,0,26,5,4,2,29,1,23
0,14,1,11,5,4,3,17,4,3,2,28
5,3,4,2,1,21,2,15,0,6,3,14
0,15,1,14,4,26,3,26,2,24,5,21
4,2,2,16,3,13,5,1,1,11,0,22
1,20,3,1,2,20,0,9,5,26,4,27
4,8,1,1,0,19,3,8,2,23,5,20
